(Al) Source:.POSCAR_0;Expand:4,4,1;Shaped;Rotate:1/2,36.87[degrees];Mirrorred;Shaped2;Cut:0.71151-0.79057;del_layer_atoms:1/20,4
   1.0000000000
  20.5767130507    0.0000000000    0.0000000000
   0.0000000000   11.4315072504    0.0000000000
   0.0000000000    0.0000000000    3.6149600000
  68
Selective dynamics
Direct
   0.5833333333    0.0500000000    0.5000000000 T T T
   0.5555555556    0.2000000000    0.0000000000 T T T
   1.0000000000    0.3000000000    0.0000000000 T T T
   0.9722222222    0.4500000000    0.5000000000 T T T
   0.6666666667    0.1000000000    0.0000000000 T T T
   0.6388888889    0.2500000000    0.5000000000 T T T
   0.7500000000    0.1500000000    0.5000000000 T T T
   0.7222222222    0.3000000000    0.0000000000 T T T
   0.6111111111    0.4000000000    0.0000000000 T T T
   0.5833333333    0.5500000000    0.5000000000 T T T
   0.6944444444    0.4500000000    0.5000000000 T T T
   0.6666666667    0.6000000000    0.0000000000 T T T
   0.5555555556    0.7000000000    0.0000000000 T T T
   0.6388888889    0.7500000000    0.5000000000 T T T
   0.6111111111    0.9000000000    0.0000000000 T T T
   0.8333333333    0.2000000000    0.0000000000 T T T
   0.8055555556    0.3500000000    0.5000000000 T T T
   0.9166666667    0.2500000000    0.5000000000 T T T
   0.8888888889    0.4000000000    0.0000000000 T T T
   0.7777777778    0.5000000000    0.0000000000 T T T
   0.7500000000    0.6500000000    0.5000000000 T T T
   0.8611111111    0.5500000000    0.5000000000 T T T
   0.8333333333    0.7000000000    0.0000000000 T T T
   0.7222222222    0.8000000000    0.0000000000 T T T
   0.6944444444    0.9500000000    0.5000000000 T T T
   0.8055555556    0.8500000000    0.5000000000 T T T
   0.7777777778    0.0000000000    0.0000000000 T T T
   0.9444444444    0.1000000000    0.0000000000 T T T
   0.9444444444    0.6000000000    0.0000000000 T T T
   0.9166666667    0.7500000000    0.5000000000 T T T
   1.0000000000    0.8000000000    0.0000000000 T T T
   0.8888888889    0.9000000000    0.0000000000 T T T
   0.8611111111    0.0500000000    0.5000000000 T T T
   0.9722222222    0.9500000000    0.5000000000 T T T
   0.5000000000    0.0000000000    0.0000000000 T T T
   0.5000000000    0.5000000000    0.0000000000 T T T
   0.4166666667    0.0500000000    0.5000000000 T T T
   0.4444444444    0.2000000000    0.0000000000 T T T
   0.4722222222    0.3500000000    0.5000000000 T T T
   0.3333333333    0.1000000000    0.0000000000 T T T
   0.3611111111    0.2500000000    0.5000000000 T T T
   0.2500000000    0.1500000000    0.5000000000 T T T
   0.2777777778    0.3000000000    0.0000000000 T T T
   0.3888888889    0.4000000000    0.0000000000 T T T
   0.4166666667    0.5500000000    0.5000000000 T T T
   0.3055555556    0.4500000000    0.5000000000 T T T
   0.3333333333    0.6000000000    0.0000000000 T T T
   0.4444444444    0.7000000000    0.0000000000 T T T
   0.4722222222    0.8500000000    0.5000000000 T T T
   0.3611111111    0.7500000000    0.5000000000 T T T
   0.3888888889    0.9000000000    0.0000000000 T T T
   0.1666666667    0.2000000000    0.0000000000 T T T
   0.1944444444    0.3500000000    0.5000000000 T T T
   0.0833333333    0.2500000000    0.5000000000 T T T
   0.1111111111    0.4000000000    0.0000000000 T T T
   0.2222222222    0.5000000000    0.0000000000 T T T
   0.2500000000    0.6500000000    0.5000000000 T T T
   0.1388888889    0.5500000000    0.5000000000 T T T
   0.1666666667    0.7000000000    0.0000000000 T T T
   0.2777777778    0.8000000000    0.0000000000 T T T
   0.3055555556    0.9500000000    0.5000000000 T T T
   0.1944444444    0.8500000000    0.5000000000 T T T
   0.2222222222    0.0000000000    0.0000000000 T T T
   0.0555555556    0.1000000000    0.0000000000 T T T
   0.0555555556    0.6000000000    0.0000000000 T T T
   0.0833333333    0.7500000000    0.5000000000 T T T
   0.1111111111    0.9000000000    0.0000000000 T T T
   0.1388888889    0.0500000000    0.5000000000 T T T
